%%%mzn-stat: initTime=0.003715589
%%%mzn-stat: objective=335
%%%mzn-stat: nodes=440
%%%mzn-stat: restarts=0
%%%mzn-stat: peakDepth=89
%%%mzn-stat: solveTime=0.026493538
%%%mzn-stat: variables=386
%%%mzn-stat: propagators=264
%%%mzn-stat: failures=341
%%%mzn-stat: propagations=63006
%%%mzn-stat: nogoods=341
%%%mzn-stat: AverageConflictSize=2.090909090909091
%%%mzn-stat: NumUnitNogoodsLearned=334
%%%mzn-stat: AverageLearnedNogoodLength=1.5513196480938416
%%%mzn-stat: AverageBacktrackAmount=0
%%%mzn-stat: AverageLbd=1.099706744868035
%%%mzn-stat-end
maxleg = 335;
succ = array1d(1..20,[10, 5, 9, 12, 15, 13, 1, 6, 17, 4, 3, 18, 7, 8, 14, 11, 19, 16, 20, 2]);
% time elapsed: 1.59 s
----------
==========
% time elapsed: 1.59 s
%%%mzn-stat: initTime=0.003715589
%%%mzn-stat: objective=335
%%%mzn-stat: nodes=440
%%%mzn-stat: restarts=0
%%%mzn-stat: peakDepth=89
%%%mzn-stat: solveTime=0.026498145
%%%mzn-stat: variables=386
%%%mzn-stat: propagators=264
%%%mzn-stat: failures=341
%%%mzn-stat: propagations=63006
%%%mzn-stat: nogoods=341
%%%mzn-stat: AverageConflictSize=2.090909090909091
%%%mzn-stat: NumUnitNogoodsLearned=334
%%%mzn-stat: AverageLearnedNogoodLength=1.5513196480938416
%%%mzn-stat: AverageBacktrackAmount=0
%%%mzn-stat: AverageLbd=1.099706744868035
%%%mzn-stat-end
